p cnf 16 18
-7 3 0
-4 6 -1 5 10 3 -16 7 12 15 0
-2 -12 6 7 -3 0
-2 4 14 0
-6 3 11 4 -8 -15 2 10 9 -13 -12 0
-7 -10 -5 -14 13 3 -16 -12 2 11 -15 6 -4 -1 0
-1 15 -14 0
-12 -5 -7 10 11 15 -2 -9 3 13 16 0
-1 2 -11 -14 0
8 5 0
16 12 15 0
3 1 6 14 15 -4 -2 -7 5 -10 -8 -16 -9 0
12 -15 -1 5 3 13 -8 10 -2 9 14 0
-4 3 -1 -10 12 11 -8 15 -7 14 -9 -5 16 0
15 1 -10 0
-10 -6 12 14 -9 -15 0
-6 10 0
15 -10 -4 1 -12 16 -11 -5 -6 8 -2 7 -9 3 14 -13 0
